p edge 34 105
e 1 13
e 1 22
e 1 26
e 1 34
e 1 23
e 1 28
e 1 2
e 1 14
e 1 10
e 1 9
e 2 30
e 2 3
e 2 28
e 2 32
e 2 9
e 2 14
e 2 34
e 3 12
e 3 4
e 3 6
e 3 14
e 3 23
e 3 21
e 4 6
e 4 11
e 4 28
e 5 16
e 5 7
e 5 8
e 5 26
e 5 34
e 5 32
e 5 9
e 6 18
e 6 25
e 6 24
e 7 23
e 7 33
e 7 26
e 7 8
e 7 18
e 8 34
e 8 15
e 8 28
e 9 25
e 9 15
e 9 32
e 10 19
e 10 14
e 10 12
e 11 20
e 11 33
e 11 16
e 12 14
e 12 17
e 12 34
e 12 13
e 13 30
e 13 31
e 13 17
e 13 34
e 13 24
e 14 24
e 14 19
e 14 27
e 14 22
e 14 33
e 14 30
e 15 26
e 15 34
e 15 33
e 15 30
e 15 23
e 15 16
e 15 18
e 16 29
e 16 30
e 16 23
e 17 31
e 17 34
e 18 25
e 18 33
e 18 26
e 19 29
e 19 23
e 21 28
e 21 27
e 22 26
e 22 31
e 22 30
e 22 33
e 23 30
e 23 34
e 24 27
e 25 31
e 25 34
e 25 28
e 25 27
e 26 33
e 27 30
e 27 28
e 27 32
e 28 30
e 30 32
e 30 33
